p cnf 125 84
DNF -3 -4 -46 -51 -56 -61 -71 -76 -81 -96 -101 -121 0 -41 -46 -51 -56 -61 -71 -76 -81 -96 -101 -121 0 -1 -21 41 0 -4 -21 41 0 -3 -21 41 0 -2 -22 41 0 -21 -22 41 0 -4 -24 41 0 -3 -22 41 0 -3 -4 41 0 -3 -23 41 0 0
DNF -19 -20 -50 -55 -60 -65 -75 -80 -85 -100 -105 -125 0 -45 -50 -55 -60 -65 -75 -80 -85 -100 -105 -125 0 -17 -37 45 0 -20 -37 45 0 -19 -37 45 0 -18 -38 45 0 -37 -38 45 0 -20 -40 45 0 -19 -38 45 0 -19 -20 45 0 -19 -39 45 0 0
DNF -15 -16 -49 -54 -59 -64 -74 -79 -84 -99 -104 -124 0 -44 -49 -54 -59 -64 -74 -79 -84 -99 -104 -124 0 -13 -33 44 0 -16 -33 44 0 -15 -33 44 0 -14 -34 44 0 -33 -34 44 0 -16 -36 44 0 -15 -34 44 0 -15 -16 44 0 -15 -35 44 0 0
DNF -11 -12 -48 -53 -58 -63 -73 -78 -83 -98 -103 -123 0 -43 -48 -53 -58 -63 -73 -78 -83 -98 -103 -123 0 -9 -29 43 0 -12 -29 43 0 -11 -29 43 0 -10 -30 43 0 -29 -30 43 0 -12 -32 43 0 -11 -30 43 0 -11 -12 43 0 -11 -31 43 0 0
DNF -7 -8 -47 -52 -57 -62 -72 -77 -82 -97 -102 -122 0 -42 -47 -52 -57 -62 -72 -77 -82 -97 -102 -122 0 -5 -25 42 0 -8 -25 42 0 -7 -25 42 0 -6 -26 42 0 -25 -26 42 0 -8 -28 42 0 -7 -26 42 0 -7 -8 42 0 -7 -27 42 0 0
DNF -44 13 0 -34 13 0 13 -16 0 13 -15 0 -64 33 -74 -13 -49 -79 -84 -54 -59 0 0
DNF -42 27 0 -8 27 0 -25 27 0 -26 27 0 -97 -102 7 -8 -122 -77 -82 -62 -57 0 -97 -102 7 -122 -77 -82 -25 -62 -57 0 -97 -102 7 -122 -77 -82 -26 -62 -57 0 -97 -102 7 -122 -77 -82 -27 -62 -57 0 0
DNF -43 31 0 -12 31 0 -29 31 0 -30 31 0 -98 -103 11 -12 -78 -63 -83 -58 -123 0 -98 -103 11 -78 -63 -83 -58 -123 -29 0 -98 -103 11 -78 -63 -83 -58 -123 -30 0 -98 -103 11 -78 -63 -83 -58 -123 -31 0 0
DNF -45 17 0 -38 17 0 17 -20 0 17 -19 0 -65 37 -75 -80 -17 -50 -85 -55 -60 0 0
DNF 35 -44 0 35 -16 0 -33 35 0 -34 35 0 -64 -99 -104 15 -16 -79 -84 -59 -124 0 -64 -33 -99 -104 15 -79 -84 -59 -124 0 -64 -34 -99 -104 15 -79 -84 -59 -124 0 -64 -35 -99 -104 15 -79 -84 -59 -124 0 0
DNF 39 -45 0 39 -20 0 -37 39 0 -38 39 0 -65 -100 -105 -80 19 -20 -85 -60 -125 0 -65 -100 -37 -105 -80 19 -85 -60 -125 0 -65 -100 -38 -105 -80 19 -85 -60 -125 0 -65 -100 -39 -105 -80 19 -85 -60 -125 0 0
DNF -41 23 0 -4 23 0 -21 23 0 -22 23 0 -96 3 -4 -101 -76 -81 -56 -121 -61 0 -96 3 -101 -76 -81 -21 -56 -121 -61 0 -96 3 -101 -76 -81 -22 -56 -121 -61 0 -96 3 -101 -76 -81 -23 -56 -121 -61 0 0
DNF 9 -43 0 9 -30 0 9 -12 0 9 -11 0 -9 -73 -78 -48 -83 -53 -58 29 -63 0 0
DNF 5 -42 0 5 -26 0 5 -8 0 5 -7 0 -5 -72 -77 -47 -82 -52 25 -62 -57 0 0
DNF 1 -41 0 1 -22 0 1 -4 0 1 -3 0 -1 -71 -76 -46 -81 -51 21 -56 -61 0 0
DNF 40 -45 0 40 -19 0 -65 -105 -75 -19 20 -85 -55 -125 0 -65 -37 -105 -75 20 -85 -55 -125 0 -65 -38 -105 -75 -18 20 -85 -55 -125 0 -65 -40 -105 -75 20 -85 -55 -125 0 -37 40 0 -38 40 -18 0 0
DNF -41 24 0 -3 24 0 -3 4 -101 -71 -81 -51 -121 -61 0 4 -101 -71 -81 -51 -21 -121 -61 0 -2 4 -101 -71 -81 -51 -22 -121 -61 0 4 -101 -71 -81 -51 -24 -121 -61 0 -21 24 0 -2 -22 24 0 0
DNF 32 -43 0 32 -11 0 -103 -73 12 -11 -83 -53 -123 -63 0 -103 -73 12 -83 -53 -123 -29 -63 0 -103 -73 -10 12 -83 -53 -123 -30 -63 0 -32 -103 -73 12 -83 -53 -123 -63 0 32 -29 0 32 -10 -30 0 0
DNF 36 -44 0 36 -15 0 -64 -104 -74 -15 16 -84 -54 -124 0 -64 -33 -104 -74 16 -84 -54 -124 0 -64 -34 -104 -74 -14 16 -84 -54 -124 0 -64 -36 -104 -74 16 -84 -54 -124 0 -33 36 0 -34 36 -14 0 0
DNF -42 28 0 -7 28 0 -7 8 -72 -102 -122 -82 -52 -62 0 8 -72 -102 -122 -82 -52 -25 -62 0 -6 8 -72 -102 -122 -82 -52 -26 -62 0 8 -72 -102 -122 -82 -52 -28 -62 0 -25 28 0 -6 -26 28 0 0
DNF 10 -43 0 10 -29 0 -32 10 -12 0 -98 -103 -10 -48 -53 -58 30 -63 0 10 -11 0 0
DNF -44 14 0 -33 14 0 -36 14 -16 0 -64 34 -99 -104 -14 -49 -54 -59 0 14 -15 0 0
DNF 2 -41 0 2 -21 0 2 -4 -24 0 -96 -2 -101 -46 -51 22 -56 -61 0 2 -3 0 0
DNF 6 -42 0 6 -25 0 6 -8 -28 0 -97 -6 -102 -47 -52 26 -62 -57 0 6 -7 0 0
DNF -45 18 0 -37 18 0 -40 18 -20 0 -65 -100 38 -105 -18 -50 -55 -60 0 18 -19 0 0
DNF 4 -41 0 4 -21 -22 0 -96 -4 -76 -46 24 -56 0 -1 4 -21 0 -3 4 -21 0 -2 4 -22 0 -3 4 -22 0 -3 4 -23 0 0
DNF 8 -42 0 8 -25 -26 0 -97 -8 -77 -47 28 -57 0 -5 8 -25 0 -7 8 -25 0 -6 8 -26 0 -7 8 -26 0 -7 8 -27 0 0
DNF -41 22 0 -3 -4 22 0 -1 -21 22 0 -3 22 -23 0 2 -3 -4 -71 -76 -81 -121 0 -1 2 -71 -76 -81 -21 -121 0 2 -4 -71 -76 -81 -21 -121 0 2 -3 -71 -76 -81 -21 -121 0 2 -71 -76 -81 -22 -121 0 -4 -21 22 0 -3 -21 22 0 -4 22 -24 0 0
DNF -43 12 0 12 -29 -30 0 32 -98 -12 -78 -48 -58 0 -9 12 -29 0 12 -11 -29 0 -10 12 -30 0 12 -11 -30 0 12 -11 -31 0 0
DNF -42 26 0 -7 -8 26 0 -5 -25 26 0 -7 26 -27 0 6 -7 -8 -72 -122 -77 -82 0 -5 6 -72 -122 -77 -82 -25 0 6 -8 -72 -122 -77 -82 -25 0 6 -7 -72 -122 -77 -82 -25 0 6 -72 -122 -77 -82 -26 0 -8 -25 26 0 -7 -25 26 0 -8 26 -28 0 0
DNF 38 -45 0 38 -19 -20 0 -37 38 -17 0 38 -39 -19 0 -75 -80 18 -19 -20 -85 -125 0 -37 -75 -80 -17 18 -85 -125 0 -37 -75 -80 18 -20 -85 -125 0 -37 -75 -80 18 -19 -85 -125 0 -38 -75 -80 18 -85 -125 0 -37 38 -20 0 -37 38 -19 0 38 -40 -20 0 0
DNF -44 16 0 -33 -34 16 0 36 -99 -16 -49 -79 -59 0 -33 -13 16 0 -33 -15 16 0 -34 -14 16 0 -34 -15 16 0 -35 -15 16 0 0
DNF 34 -44 0 34 -15 -16 0 -33 34 -13 0 34 -35 -15 0 -74 14 -15 -16 -79 -84 -124 0 -33 -74 -13 14 -79 -84 -124 0 -33 -74 14 -16 -79 -84 -124 0 -33 -74 14 -15 -79 -84 -124 0 -34 -74 14 -79 -84 -124 0 -33 34 -16 0 -33 34 -15 0 34 -36 -16 0 0
DNF -45 20 0 -37 -38 20 0 -100 40 -80 -20 -50 -60 0 -37 -17 20 0 -37 -19 20 0 -38 -18 20 0 -38 -19 20 0 -39 -19 20 0 0
DNF -43 30 0 -11 -12 30 0 -9 -29 30 0 -11 30 -31 0 10 -11 -12 -73 -78 -83 -123 0 -9 10 -73 -78 -83 -123 -29 0 10 -12 -73 -78 -83 -123 -29 0 10 -11 -73 -78 -83 -123 -29 0 10 -73 -78 -83 -123 -30 0 -12 -29 30 0 -11 -29 30 0 -32 -12 30 0 0
DNF 32 9 10 43 31 61 0 32 9 10 43 31 62 0 32 9 10 43 31 63 0 64 32 9 10 43 31 0 65 32 9 10 43 31 0 65 -63 0 64 -63 0 62 -63 0 61 -63 0 0
DNF 36 44 13 14 15 51 0 36 44 13 14 15 52 0 36 44 13 14 15 53 0 36 44 13 14 15 54 0 36 44 13 14 15 55 0 -54 55 0 53 -54 0 52 -54 0 51 -54 0 0
DNF 33 34 35 36 44 121 0 33 34 35 36 44 122 0 33 34 35 36 44 123 0 33 34 35 36 44 124 0 33 34 35 36 44 125 0 -124 125 0 123 -124 0 122 -124 0 121 -124 0 0
DNF 1 2 41 23 24 61 0 1 2 41 23 24 62 0 1 2 41 23 24 63 0 64 1 2 41 23 24 0 65 1 2 41 23 24 0 65 -61 0 64 -61 0 -61 63 0 -61 62 0 0
DNF 39 45 17 18 20 56 0 39 45 17 18 20 57 0 39 45 17 18 20 58 0 39 45 17 18 20 59 0 39 45 17 18 20 60 0 59 -60 0 58 -60 0 57 -60 0 56 -60 0 0
DNF 35 44 13 14 16 56 0 35 44 13 14 16 57 0 35 44 13 14 16 58 0 35 44 13 14 16 59 0 35 44 13 14 16 60 0 -59 60 0 58 -59 0 57 -59 0 56 -59 0 0
DNF 9 10 43 12 56 31 0 9 10 43 12 57 31 0 9 10 43 12 58 31 0 9 10 43 12 59 31 0 9 10 43 12 60 31 0 -58 60 0 -58 59 0 57 -58 0 56 -58 0 0
DNF 5 6 27 8 42 56 0 5 6 27 8 42 57 0 5 6 27 8 42 58 0 5 6 27 8 42 59 0 5 6 27 8 42 60 0 -57 60 0 -57 59 0 -57 58 0 56 -57 0 0
DNF 1 2 4 41 23 56 0 1 2 4 41 23 57 0 1 2 4 41 23 58 0 1 2 4 41 23 59 0 1 2 4 41 23 60 0 -56 60 0 -56 59 0 -56 58 0 -56 57 0 0
DNF 40 45 17 18 51 19 0 40 45 17 18 52 19 0 40 45 17 18 53 19 0 40 45 17 18 54 19 0 40 45 17 18 55 19 0 54 -55 0 53 -55 0 52 -55 0 51 -55 0 0
DNF 37 38 39 40 45 121 0 37 38 39 40 45 122 0 37 38 39 40 45 123 0 37 38 39 40 45 124 0 37 38 39 40 45 125 0 124 -125 0 123 -125 0 122 -125 0 121 -125 0 0
DNF 32 9 10 43 11 51 0 32 9 10 43 11 52 0 32 9 10 43 11 53 0 32 9 10 43 11 54 0 32 9 10 43 11 55 0 -53 55 0 -53 54 0 52 -53 0 51 -53 0 0
DNF 5 6 7 42 51 28 0 5 6 7 42 52 28 0 5 6 7 42 53 28 0 5 6 7 42 54 28 0 5 6 7 42 55 28 0 -52 55 0 -52 54 0 -52 53 0 51 -52 0 0
DNF 1 2 3 41 51 24 0 1 2 3 41 52 24 0 1 2 3 41 53 24 0 1 2 3 41 54 24 0 1 2 3 41 55 24 0 -51 55 0 -51 54 0 -51 53 0 -51 52 0 0
DNF 45 46 17 18 19 20 0 45 47 17 18 19 20 0 45 48 17 18 19 20 0 45 49 17 18 19 20 0 45 50 17 18 19 20 0 49 -50 0 48 -50 0 47 -50 0 46 -50 0 0
DNF 44 13 46 14 15 16 0 44 13 47 14 15 16 0 44 13 48 14 15 16 0 44 13 49 14 15 16 0 44 13 50 14 15 16 0 -49 50 0 48 -49 0 47 -49 0 46 -49 0 0
DNF 9 10 43 11 12 46 0 9 10 43 11 12 47 0 9 10 43 11 12 48 0 9 10 43 11 12 49 0 9 10 43 11 12 50 0 -48 50 0 -48 49 0 47 -48 0 46 -48 0 0
DNF 5 6 7 8 42 46 0 5 6 7 8 42 47 0 5 6 7 8 42 48 0 5 6 7 8 42 49 0 5 6 7 8 42 50 0 -47 50 0 -47 49 0 -47 48 0 46 -47 0 0
DNF 1 2 3 4 41 46 0 1 2 3 4 41 47 0 1 2 3 4 41 48 0 1 2 3 4 41 49 0 1 2 3 4 41 50 0 -46 50 0 -46 49 0 -46 48 0 -46 47 0 0
DNF 39 40 45 17 18 61 0 39 40 45 17 18 62 0 39 40 45 17 18 63 0 64 39 40 45 17 18 0 65 39 40 45 17 18 0 64 -65 0 -65 63 0 -65 62 0 -65 61 0 0
DNF 35 36 44 13 14 61 0 35 36 44 13 14 62 0 35 36 44 13 14 63 0 64 35 36 44 13 14 0 65 35 36 44 13 14 0 -64 65 0 -64 63 0 -64 62 0 -64 61 0 0
DNF 5 6 42 27 28 61 0 5 6 42 27 28 62 0 5 6 42 27 28 63 0 64 5 6 42 27 28 0 65 5 6 42 27 28 0 65 -62 0 64 -62 0 -62 63 0 61 -62 0 0
DNF 96 33 35 44 14 16 0 97 33 35 44 14 16 0 98 33 35 44 14 16 0 99 33 35 44 14 16 0 100 33 35 44 14 16 0 -99 100 0 98 -99 0 97 -99 0 96 -99 0 0
DNF 1 41 81 22 23 24 0 1 41 82 22 23 24 0 1 41 83 22 23 24 0 1 41 84 22 23 24 0 1 41 85 22 23 24 0 -81 85 0 -81 84 0 -81 83 0 -81 82 0 0
DNF 101 42 6 25 27 28 0 102 42 6 25 27 28 0 103 42 6 25 27 28 0 104 42 6 25 27 28 0 105 42 6 25 27 28 0 -102 105 0 -102 104 0 -102 103 0 101 -102 0 0
DNF 2 101 41 21 23 24 0 2 102 41 21 23 24 0 2 103 41 21 23 24 0 2 104 41 21 23 24 0 2 105 41 21 23 24 0 -101 105 0 -101 104 0 -101 103 0 -101 102 0 0
DNF 96 37 39 45 18 20 0 97 37 39 45 18 20 0 98 37 39 45 18 20 0 99 37 39 45 18 20 0 100 37 39 45 18 20 0 99 -100 0 98 -100 0 97 -100 0 96 -100 0 0
DNF 33 35 36 101 44 14 0 33 35 36 102 44 14 0 33 35 36 103 44 14 0 33 35 36 104 44 14 0 33 35 36 105 44 14 0 -104 105 0 103 -104 0 102 -104 0 101 -104 0 0
DNF 96 10 43 12 29 31 0 97 10 43 12 29 31 0 98 10 43 12 29 31 0 99 10 43 12 29 31 0 100 10 43 12 29 31 0 -98 100 0 -98 99 0 97 -98 0 96 -98 0 0
DNF 96 6 8 42 25 27 0 97 6 8 42 25 27 0 98 6 8 42 25 27 0 99 6 8 42 25 27 0 100 6 8 42 25 27 0 -97 100 0 -97 99 0 -97 98 0 96 -97 0 0
DNF 96 2 4 41 21 23 0 97 2 4 41 21 23 0 98 2 4 41 21 23 0 99 2 4 41 21 23 0 100 2 4 41 21 23 0 -96 100 0 -96 99 0 -96 98 0 -96 97 0 0
DNF 101 37 39 40 45 18 0 102 37 39 40 45 18 0 103 37 39 40 45 18 0 104 37 39 40 45 18 0 105 37 39 40 45 18 0 104 -105 0 103 -105 0 102 -105 0 101 -105 0 0
DNF 32 101 10 43 29 31 0 32 102 10 43 29 31 0 32 103 10 43 29 31 0 32 104 10 43 29 31 0 32 105 10 43 29 31 0 -103 105 0 -103 104 0 102 -103 0 101 -103 0 0
DNF 38 39 40 45 81 17 0 38 39 40 45 82 17 0 38 39 40 45 83 17 0 38 39 40 45 84 17 0 38 39 40 45 85 17 0 84 -85 0 83 -85 0 82 -85 0 81 -85 0 0
DNF 34 35 36 44 13 81 0 34 35 36 44 13 82 0 34 35 36 44 13 83 0 34 35 36 44 13 84 0 34 35 36 44 13 85 0 -84 85 0 83 -84 0 82 -84 0 81 -84 0 0
DNF 32 9 43 81 30 31 0 32 9 43 82 30 31 0 32 9 43 83 30 31 0 32 9 43 84 30 31 0 32 9 43 85 30 31 0 -83 85 0 -83 84 0 82 -83 0 81 -83 0 0
DNF 5 42 81 26 27 28 0 5 42 82 26 27 28 0 5 42 83 26 27 28 0 5 42 84 26 27 28 0 5 42 85 26 27 28 0 -82 85 0 -82 84 0 -82 83 0 81 -82 0 0
DNF 41 21 22 23 24 121 0 41 21 22 23 24 122 0 41 21 22 23 24 123 0 41 21 22 23 24 124 0 41 21 22 23 24 125 0 -121 125 0 -121 124 0 -121 123 0 -121 122 0 0
DNF 38 39 76 45 17 20 0 38 39 77 45 17 20 0 38 39 78 45 17 20 0 38 39 79 45 17 20 0 38 39 80 45 17 20 0 79 -80 0 78 -80 0 77 -80 0 76 -80 0 0
DNF 9 43 76 12 30 31 0 9 43 77 12 30 31 0 9 43 78 12 30 31 0 9 43 79 12 30 31 0 9 43 80 12 30 31 0 -78 80 0 -78 79 0 77 -78 0 76 -78 0 0
DNF 5 8 42 76 26 27 0 5 8 42 77 26 27 0 5 8 42 78 26 27 0 5 8 42 79 26 27 0 5 8 42 80 26 27 0 -77 80 0 -77 79 0 -77 78 0 76 -77 0 0
DNF 1 4 41 76 22 23 0 1 4 41 77 22 23 0 1 4 41 78 22 23 0 1 4 41 79 22 23 0 1 4 41 80 22 23 0 -76 80 0 -76 79 0 -76 78 0 -76 77 0 0
DNF 32 43 29 121 30 31 0 32 43 29 122 30 31 0 32 43 29 123 30 31 0 32 43 29 124 30 31 0 32 43 29 125 30 31 0 -123 125 0 -123 124 0 122 -123 0 121 -123 0 0
DNF 26 27 42 28 121 25 0 26 27 42 28 122 25 0 26 27 42 28 123 25 0 26 27 42 28 124 25 0 26 27 42 28 125 25 0 -122 125 0 -122 124 0 -122 123 0 121 -122 0 0
DNF 1 3 71 41 22 24 0 1 3 72 41 22 24 0 1 3 73 41 22 24 0 1 3 74 41 22 24 0 1 3 75 41 22 24 0 -71 75 0 -71 74 0 -71 73 0 -71 72 0 0
-72 7 0
-73 11 0
-74 15 0
-75 19 0
